\ENCODING=ISO-8859-1
\Problem name: ../EQLPSolver/HiGHS-1-2-1/smallTests/codbt021.mps

Minimize
 OBJ: x0 + x1 + x2 + x3 + x4 + x5 + x6 + x7 + x8
Subject To
 R0:   x0 + x1 + x2 + x3 + x6 >= 1
 R1:   x0 + x1 + x2 + x4 + x7 >= 1
 R2:   x0 + x1 + x2 + x5 + x8 >= 1
 R3:   x0 + x3 + x4 + x5 + x6 >= 1
 R4:   x1 + x3 + x4 + x5 + x7 >= 1
 R5:   x2 + x3 + x4 + x5 + x8 >= 1
 R6:   x0 + x3 + x6 + x7 + x8 >= 1
 R7:   x1 + x4 + x6 + x7 + x8 >= 1
 R8:   x2 + x5 + x6 + x7 + x8 >= 1
 C18:  4 x0 + 4 x1 + 4 x2 + 4 x3 + 4 x4 + 4 x5 + 4 x6 + 4 x7 + 4 x8 >= 8
 C19:  2 x0 + 3 x1 + 3 x2 + 3 x3 + 3 x4 + 3 x5 + 3 x6 + 3 x7 + 3 x8 >= 6
 C20:  3 x0 + 3 x1 + 3 x2 + 3 x3 + 2 x4 + 3 x5 + 3 x6 + 3 x7 + 3 x8 >= 6
 C21:  3 x0 + 3 x1 + 3 x2 + 3 x3 + 3 x4 + 2 x5 + 3 x6 + 3 x7 + 3 x8 >= 6
 C22:  3 x0 + 3 x1 + 3 x2 + 3 x3 + 3 x4 + 3 x5 + 2 x6 + 3 x7 + 3 x8 >= 6
 C23:  3 x0 + 3 x1 + 2 x2 + 3 x3 + 3 x4 + 3 x5 + 3 x6 + 3 x7 + 3 x8 >= 6
 C24:  3 x0 + 3 x1 + 3 x2 + 3 x3 + 3 x4 + 3 x5 + 3 x6 + 2 x7 + 3 x8 >= 6
 C25:  3 x0 + 2 x1 + 3 x2 + 3 x3 + 3 x4 + 3 x5 + 3 x6 + 3 x7 + 3 x8 >= 6
 C26:  3 x0 + 3 x1 + 3 x2 + 3 x3 + 3 x4 + 3 x5 + 3 x6 + 3 x7 + 2 x8 >= 6
 C27:  3 x0 + 3 x1 + 3 x2 + 2 x3 + 3 x4 + 3 x5 + 3 x6 + 3 x7 + 3 x8 >= 6
 C28:  3 x0 + 4 x1 + 4 x2 + 4 x3 + 4 x4 + 4 x5 + 4 x6 + 4 x7 + 4 x8 >= 8
 C29:  4 x0 + 4 x1 + 4 x2 + 4 x3 + 3 x4 + 4 x5 + 4 x6 + 4 x7 + 4 x8 >= 8
 C30:  4 x0 + 4 x1 + 4 x2 + 4 x3 + 4 x4 + 3 x5 + 4 x6 + 4 x7 + 4 x8 >= 8
 C31:  4 x0 + 4 x1 + 4 x2 + 4 x3 + 4 x4 + 4 x5 + 3 x6 + 4 x7 + 4 x8 >= 8
 C32:  4 x0 + 4 x1 + 3 x2 + 4 x3 + 4 x4 + 4 x5 + 4 x6 + 4 x7 + 4 x8 >= 8
 C33:  4 x0 + 4 x1 + 4 x2 + 4 x3 + 4 x4 + 4 x5 + 4 x6 + 3 x7 + 4 x8 >= 8
 C34:  4 x0 + 3 x1 + 4 x2 + 4 x3 + 4 x4 + 4 x5 + 4 x6 + 4 x7 + 4 x8 >= 8
 C35:  4 x0 + 4 x1 + 4 x2 + 4 x3 + 4 x4 + 4 x5 + 4 x6 + 4 x7 + 3 x8 >= 8
 C36:  4 x0 + 4 x1 + 4 x2 + 3 x3 + 4 x4 + 4 x5 + 4 x6 + 4 x7 + 4 x8 >= 8
 C37:  10 x0 + 9 x1 + 9 x2 + 10 x3 + 9 x4 + 9 x5 + 10 x6 + 9 x7 + 9 x8 >= 20
 C38:  9 x0 + 10 x1 + 9 x2 + 9 x3 + 10 x4 + 9 x5 + 9 x6 + 10 x7 + 9 x8 >= 20
 C39:  9 x0 + 9 x1 + 9 x2 + 10 x3 + 10 x4 + 10 x5 + 9 x6 + 9 x7 + 9 x8 >= 20
 C40:  9 x0 + 9 x1 + 10 x2 + 9 x3 + 9 x4 + 10 x5 + 9 x6 + 9 x7 + 10 x8 >= 20
 C41:  9 x0 + 9 x1 + 9 x2 + 9 x3 + 9 x4 + 9 x5 + 10 x6 + 10 x7 + 10 x8 >= 20
 C42:  10 x0 + 10 x1 + 10 x2 + 9 x3 + 9 x4 + 9 x5 + 9 x6 + 9 x7 + 9 x8 >= 20
 C43:  5 x0 + 5 x1 + 6 x2 + 5 x3 + 6 x4 + 6 x5 + 5 x6 + 6 x7 + 6 x8 >= 12
 C44:  5 x0 + 6 x1 + 5 x2 + 5 x3 + 6 x4 + 6 x5 + 5 x6 + 6 x7 + 6 x8 >= 12
 C45:  6 x0 + 5 x1 + 6 x2 + 5 x3 + 5 x4 + 6 x5 + 6 x6 + 5 x7 + 6 x8 >= 12
 C46:  6 x0 + 6 x1 + 6 x2 + 5 x3 + 5 x4 + 5 x5 + 6 x6 + 6 x7 + 5 x8 >= 12
 C47:  6 x0 + 5 x1 + 6 x2 + 6 x3 + 5 x4 + 5 x5 + 6 x6 + 5 x7 + 6 x8 >= 12
 C48:  6 x0 + 6 x1 + 5 x2 + 5 x3 + 5 x4 + 5 x5 + 6 x6 + 6 x7 + 6 x8 >= 12
 C49:  6 x0 + 6 x1 + 5 x2 + 5 x3 + 6 x4 + 5 x5 + 6 x6 + 6 x7 + 5 x8 >= 12
 C50:  6 x0 + 6 x1 + 6 x2 + 5 x3 + 6 x4 + 6 x5 + 5 x6 + 5 x7 + 5 x8 >= 12
 C51:  6 x0 + 6 x1 + 6 x2 + 5 x3 + 5 x4 + 5 x5 + 6 x6 + 5 x7 + 6 x8 >= 12
 C52:  5 x0 + 5 x1 + 5 x2 + 6 x3 + 6 x4 + 6 x5 + 6 x6 + 6 x7 + 5 x8 >= 12
 C53:  6 x0 + 6 x1 + 5 x2 + 6 x3 + 5 x4 + 5 x5 + 6 x6 + 6 x7 + 5 x8 >= 12
 C54:  5 x0 + 6 x1 + 6 x2 + 6 x3 + 6 x4 + 6 x5 + 5 x6 + 5 x7 + 5 x8 >= 12
 C55:  6 x0 + 5 x1 + 6 x2 + 5 x3 + 5 x4 + 5 x5 + 6 x6 + 6 x7 + 6 x8 >= 12
 C56:  5 x0 + 5 x1 + 5 x2 + 6 x3 + 6 x4 + 5 x5 + 6 x6 + 6 x7 + 6 x8 >= 12
 C57:  6 x0 + 5 x1 + 5 x2 + 6 x3 + 6 x4 + 5 x5 + 6 x6 + 6 x7 + 5 x8 >= 12
 C58:  5 x0 + 5 x1 + 5 x2 + 5 x3 + 6 x4 + 6 x5 + 6 x6 + 6 x7 + 6 x8 >= 12
 C59:  6 x0 + 5 x1 + 6 x2 + 6 x3 + 6 x4 + 6 x5 + 5 x6 + 5 x7 + 5 x8 >= 12
 C60:  5 x0 + 5 x1 + 5 x2 + 6 x3 + 6 x4 + 6 x5 + 5 x6 + 6 x7 + 6 x8 >= 12
 C61:  5 x0 + 6 x1 + 6 x2 + 5 x3 + 6 x4 + 6 x5 + 5 x6 + 5 x7 + 6 x8 >= 12
 C62:  5 x0 + 5 x1 + 5 x2 + 6 x3 + 6 x4 + 6 x5 + 6 x6 + 5 x7 + 6 x8 >= 12
 C63:  5 x0 + 6 x1 + 5 x2 + 6 x3 + 6 x4 + 5 x5 + 6 x6 + 6 x7 + 5 x8 >= 12
 C64:  6 x0 + 6 x1 + 6 x2 + 6 x3 + 5 x4 + 6 x5 + 5 x6 + 5 x7 + 5 x8 >= 12
 C65:  5 x0 + 6 x1 + 6 x2 + 5 x3 + 6 x4 + 6 x5 + 5 x6 + 6 x7 + 5 x8 >= 12
 C66:  5 x0 + 5 x1 + 5 x2 + 6 x3 + 5 x4 + 6 x5 + 6 x6 + 6 x7 + 6 x8 >= 12
 C67:  6 x0 + 5 x1 + 5 x2 + 6 x3 + 5 x4 + 6 x5 + 6 x6 + 5 x7 + 6 x8 >= 12
 C68:  6 x0 + 6 x1 + 5 x2 + 6 x3 + 6 x4 + 6 x5 + 5 x6 + 5 x7 + 5 x8 >= 12
 C69:  6 x0 + 5 x1 + 6 x2 + 6 x3 + 5 x4 + 6 x5 + 6 x6 + 5 x7 + 5 x8 >= 12
 C70:  6 x0 + 5 x1 + 6 x2 + 6 x3 + 5 x4 + 6 x5 + 5 x6 + 5 x7 + 6 x8 >= 12
 C71:  6 x0 + 6 x1 + 6 x2 + 5 x3 + 5 x4 + 5 x5 + 5 x6 + 6 x7 + 6 x8 >= 12
 C72:  6 x0 + 6 x1 + 5 x2 + 6 x3 + 6 x4 + 5 x5 + 6 x6 + 5 x7 + 5 x8 >= 12
 C73:  5 x0 + 5 x1 + 6 x2 + 6 x3 + 5 x4 + 6 x5 + 6 x6 + 5 x7 + 6 x8 >= 12
 C74:  6 x0 + 6 x1 + 6 x2 + 6 x3 + 6 x4 + 5 x5 + 5 x6 + 5 x7 + 5 x8 >= 12
 C75:  5 x0 + 6 x1 + 6 x2 + 5 x3 + 5 x4 + 5 x5 + 6 x6 + 6 x7 + 6 x8 >= 12
 C76:  6 x0 + 6 x1 + 5 x2 + 6 x3 + 6 x4 + 5 x5 + 5 x6 + 6 x7 + 5 x8 >= 12
 C77:  5 x0 + 6 x1 + 6 x2 + 5 x3 + 6 x4 + 5 x5 + 5 x6 + 6 x7 + 6 x8 >= 12
 C78:  5 x0 + 6 x1 + 6 x2 + 5 x3 + 5 x4 + 6 x5 + 5 x6 + 6 x7 + 6 x8 >= 12
 C79:  6 x0 + 6 x1 + 7 x2 + 7 x3 + 7 x4 + 7 x5 + 7 x6 + 7 x7 + 7 x8 >= 14
 C80:  6 x0 + 7 x1 + 6 x2 + 7 x3 + 7 x4 + 7 x5 + 7 x6 + 7 x7 + 7 x8 >= 14
 C81:  7 x0 + 7 x1 + 7 x2 + 6 x3 + 6 x4 + 7 x5 + 7 x6 + 7 x7 + 7 x8 >= 14
 C82:  7 x0 + 7 x1 + 7 x2 + 7 x3 + 7 x4 + 6 x5 + 7 x6 + 7 x7 + 6 x8 >= 14
 C83:  7 x0 + 7 x1 + 7 x2 + 7 x3 + 6 x4 + 6 x5 + 7 x6 + 7 x7 + 7 x8 >= 14
 C84:  7 x0 + 7 x1 + 6 x2 + 7 x3 + 7 x4 + 6 x5 + 7 x6 + 7 x7 + 7 x8 >= 14
 C85:  7 x0 + 7 x1 + 7 x2 + 6 x3 + 7 x4 + 6 x5 + 7 x6 + 7 x7 + 7 x8 >= 14
 C86:  7 x0 + 7 x1 + 7 x2 + 6 x3 + 7 x4 + 7 x5 + 6 x6 + 7 x7 + 7 x8 >= 14
 C87:  7 x0 + 7 x1 + 7 x2 + 7 x3 + 6 x4 + 7 x5 + 7 x6 + 6 x7 + 7 x8 >= 14
 C88:  7 x0 + 7 x1 + 6 x2 + 7 x3 + 7 x4 + 7 x5 + 7 x6 + 7 x7 + 6 x8 >= 14
 C89:  6 x0 + 7 x1 + 7 x2 + 7 x3 + 7 x4 + 7 x5 + 6 x6 + 7 x7 + 7 x8 >= 14
 C90:  7 x0 + 6 x1 + 7 x2 + 7 x3 + 6 x4 + 7 x5 + 7 x6 + 7 x7 + 7 x8 >= 14
 C91:  7 x0 + 6 x1 + 6 x2 + 7 x3 + 7 x4 + 7 x5 + 7 x6 + 7 x7 + 7 x8 >= 14
 C92:  6 x0 + 7 x1 + 7 x2 + 6 x3 + 7 x4 + 7 x5 + 7 x6 + 7 x7 + 7 x8 >= 14
 C93:  7 x0 + 6 x1 + 7 x2 + 7 x3 + 7 x4 + 7 x5 + 7 x6 + 6 x7 + 7 x8 >= 14
 C94:  7 x0 + 7 x1 + 7 x2 + 7 x3 + 7 x4 + 7 x5 + 6 x6 + 6 x7 + 7 x8 >= 14
 C95:  7 x0 + 7 x1 + 7 x2 + 7 x3 + 7 x4 + 7 x5 + 6 x6 + 7 x7 + 6 x8 >= 14
 C96:  7 x0 + 7 x1 + 7 x2 + 7 x3 + 7 x4 + 7 x5 + 7 x6 + 6 x7 + 6 x8 >= 14
 C97:  7 x0 + 6 x1 + 6 x2 + 7 x3 + 6 x4 + 6 x5 + 7 x6 + 6 x7 + 6 x8 >= 14
 C98:  6 x0 + 7 x1 + 6 x2 + 6 x3 + 7 x4 + 6 x5 + 6 x6 + 7 x7 + 6 x8 >= 14
 C99:  6 x0 + 6 x1 + 6 x2 + 7 x3 + 7 x4 + 7 x5 + 6 x6 + 6 x7 + 6 x8 >= 14
 C100: 6 x0 + 6 x1 + 7 x2 + 6 x3 + 6 x4 + 7 x5 + 6 x6 + 6 x7 + 7 x8 >= 14
 C101: 6 x0 + 6 x1 + 6 x2 + 6 x3 + 6 x4 + 6 x5 + 7 x6 + 7 x7 + 7 x8 >= 14
 C102: 7 x0 + 7 x1 + 7 x2 + 6 x3 + 6 x4 + 6 x5 + 6 x6 + 6 x7 + 6 x8 >= 14
 C103: 5 x0 + 5 x1 + 5 x2 + 5 x3 + 6 x4 + 5 x5 + 5 x6 + 6 x7 + 5 x8 >= 11
 C104: 5 x0 + 5 x1 + 5 x2 + 5 x3 + 5 x4 + 6 x5 + 5 x6 + 5 x7 + 6 x8 >= 11
 C105: 6 x0 + 5 x1 + 5 x2 + 5 x3 + 5 x4 + 5 x5 + 6 x6 + 5 x7 + 5 x8 >= 11
 C106: 5 x0 + 5 x1 + 5 x2 + 5 x3 + 5 x4 + 5 x5 + 6 x6 + 6 x7 + 5 x8 >= 11
 C107: 5 x0 + 5 x1 + 6 x2 + 5 x3 + 5 x4 + 5 x5 + 5 x6 + 5 x7 + 6 x8 >= 11
 C108: 6 x0 + 6 x1 + 5 x2 + 5 x3 + 5 x4 + 5 x5 + 5 x6 + 5 x7 + 5 x8 >= 11
 C109: 5 x0 + 5 x1 + 5 x2 + 5 x3 + 6 x4 + 6 x5 + 5 x6 + 5 x7 + 5 x8 >= 11
 C110: 5 x0 + 5 x1 + 5 x2 + 5 x3 + 5 x4 + 5 x5 + 6 x6 + 5 x7 + 6 x8 >= 11
 C111: 5 x0 + 6 x1 + 5 x2 + 5 x3 + 5 x4 + 5 x5 + 5 x6 + 6 x7 + 5 x8 >= 11
 C112: 5 x0 + 6 x1 + 6 x2 + 5 x3 + 5 x4 + 5 x5 + 5 x6 + 5 x7 + 5 x8 >= 11
 C113: 6 x0 + 5 x1 + 6 x2 + 5 x3 + 5 x4 + 5 x5 + 5 x6 + 5 x7 + 5 x8 >= 11
 C114: 5 x0 + 5 x1 + 5 x2 + 6 x3 + 6 x4 + 5 x5 + 5 x6 + 5 x7 + 5 x8 >= 11
 C115: 5 x0 + 5 x1 + 5 x2 + 5 x3 + 5 x4 + 5 x5 + 5 x6 + 6 x7 + 6 x8 >= 11
 C116: 5 x0 + 6 x1 + 5 x2 + 5 x3 + 6 x4 + 5 x5 + 5 x6 + 5 x7 + 5 x8 >= 11
 C117: 5 x0 + 5 x1 + 5 x2 + 6 x3 + 5 x4 + 5 x5 + 6 x6 + 5 x7 + 5 x8 >= 11
 C118: 5 x0 + 5 x1 + 5 x2 + 6 x3 + 5 x4 + 6 x5 + 5 x6 + 5 x7 + 5 x8 >= 11
 C119: 5 x0 + 5 x1 + 6 x2 + 5 x3 + 5 x4 + 6 x5 + 5 x6 + 5 x7 + 5 x8 >= 11
 C120: 6 x0 + 5 x1 + 5 x2 + 6 x3 + 5 x4 + 5 x5 + 5 x6 + 5 x7 + 5 x8 >= 11
 C121: 8 x0 + 8 x1 + 8 x2 + 8 x3 + 8 x4 + 8 x5 + 8 x6 + 8 x7 + 8 x8 >= 17
 C122: 2 x0 + 2 x1 + 2 x2 + 2 x3 + 2 x4 + 2 x5 + 2 x6 + 2 x7 + 2 x8 >= 5
 C123: 11 x0 + 10 x1 + 10 x2 + 11 x3 + 10 x4 + 10 x5 + 11 x6 + 10 x7 + 10 x8
       >= 22
 C124: 10 x0 + 11 x1 + 10 x2 + 10 x3 + 11 x4 + 10 x5 + 10 x6 + 11 x7 + 10 x8
       >= 22
 C125: 10 x0 + 10 x1 + 10 x2 + 11 x3 + 11 x4 + 11 x5 + 10 x6 + 10 x7 + 10 x8
       >= 22
 C126: 10 x0 + 10 x1 + 11 x2 + 10 x3 + 10 x4 + 11 x5 + 10 x6 + 10 x7 + 11 x8
       >= 22
 C127: 10 x0 + 10 x1 + 10 x2 + 10 x3 + 10 x4 + 10 x5 + 11 x6 + 11 x7 + 11 x8
       >= 22
 C128: 11 x0 + 11 x1 + 11 x2 + 10 x3 + 10 x4 + 10 x5 + 10 x6 + 10 x7 + 10 x8
       >= 22
 C129: 9 x0 + 8 x1 + 8 x2 + 9 x3 + 9 x4 + 8 x5 + 9 x6 + 9 x7 + 8 x8 >= 18
 C130: 9 x0 + 8 x1 + 8 x2 + 9 x3 + 8 x4 + 9 x5 + 9 x6 + 8 x7 + 9 x8 >= 18
 C131: 9 x0 + 9 x1 + 8 x2 + 8 x3 + 9 x4 + 8 x5 + 9 x6 + 9 x7 + 8 x8 >= 18
 C132: 8 x0 + 8 x1 + 8 x2 + 9 x3 + 9 x4 + 9 x5 + 9 x6 + 9 x7 + 8 x8 >= 18
 C133: 8 x0 + 9 x1 + 9 x2 + 8 x3 + 9 x4 + 8 x5 + 8 x6 + 9 x7 + 9 x8 >= 18
 C134: 9 x0 + 9 x1 + 8 x2 + 9 x3 + 9 x4 + 9 x5 + 8 x6 + 8 x7 + 8 x8 >= 18
 C135: 9 x0 + 8 x1 + 9 x2 + 8 x3 + 8 x4 + 9 x5 + 9 x6 + 8 x7 + 9 x8 >= 18
 C136: 8 x0 + 8 x1 + 8 x2 + 8 x3 + 9 x4 + 9 x5 + 9 x6 + 9 x7 + 9 x8 >= 18
 C137: 8 x0 + 8 x1 + 8 x2 + 9 x3 + 9 x4 + 9 x5 + 9 x6 + 8 x7 + 9 x8 >= 18
 C138: 9 x0 + 9 x1 + 9 x2 + 8 x3 + 8 x4 + 8 x5 + 9 x6 + 9 x7 + 8 x8 >= 18
 C139: 8 x0 + 9 x1 + 9 x2 + 8 x3 + 8 x4 + 9 x5 + 8 x6 + 9 x7 + 9 x8 >= 18
 C140: 8 x0 + 9 x1 + 9 x2 + 8 x3 + 8 x4 + 8 x5 + 9 x6 + 9 x7 + 9 x8 >= 18
 C141: 9 x0 + 8 x1 + 9 x2 + 9 x3 + 9 x4 + 9 x5 + 8 x6 + 8 x7 + 8 x8 >= 18
 C142: 9 x0 + 9 x1 + 9 x2 + 9 x3 + 9 x4 + 8 x5 + 8 x6 + 8 x7 + 8 x8 >= 18
 C143: 8 x0 + 8 x1 + 9 x2 + 8 x3 + 9 x4 + 9 x5 + 8 x6 + 9 x7 + 9 x8 >= 18
 C144: 9 x0 + 9 x1 + 9 x2 + 8 x3 + 9 x4 + 9 x5 + 8 x6 + 8 x7 + 8 x8 >= 18
 C145: 9 x0 + 8 x1 + 9 x2 + 8 x3 + 8 x4 + 8 x5 + 9 x6 + 9 x7 + 9 x8 >= 18
 C146: 9 x0 + 9 x1 + 9 x2 + 8 x3 + 8 x4 + 8 x5 + 8 x6 + 9 x7 + 9 x8 >= 18
 C147: 9 x0 + 9 x1 + 8 x2 + 9 x3 + 9 x4 + 8 x5 + 9 x6 + 8 x7 + 8 x8 >= 18
 C148: 9 x0 + 9 x1 + 9 x2 + 8 x3 + 8 x4 + 8 x5 + 9 x6 + 8 x7 + 9 x8 >= 18
 C149: 8 x0 + 8 x1 + 9 x2 + 9 x3 + 8 x4 + 9 x5 + 9 x6 + 8 x7 + 9 x8 >= 18
 C150: 8 x0 + 8 x1 + 8 x2 + 9 x3 + 8 x4 + 9 x5 + 9 x6 + 9 x7 + 9 x8 >= 18
 C151: 9 x0 + 8 x1 + 9 x2 + 9 x3 + 8 x4 + 9 x5 + 9 x6 + 8 x7 + 8 x8 >= 18
 C152: 9 x0 + 9 x1 + 9 x2 + 9 x3 + 8 x4 + 9 x5 + 8 x6 + 8 x7 + 8 x8 >= 18
 C153: 8 x0 + 9 x1 + 8 x2 + 8 x3 + 9 x4 + 9 x5 + 8 x6 + 9 x7 + 9 x8 >= 18
 C154: 9 x0 + 9 x1 + 8 x2 + 8 x3 + 8 x4 + 8 x5 + 9 x6 + 9 x7 + 9 x8 >= 18
 C155: 8 x0 + 9 x1 + 9 x2 + 8 x3 + 9 x4 + 9 x5 + 8 x6 + 9 x7 + 8 x8 >= 18
 C156: 9 x0 + 9 x1 + 8 x2 + 9 x3 + 9 x4 + 8 x5 + 8 x6 + 9 x7 + 8 x8 >= 18
 C157: 8 x0 + 8 x1 + 8 x2 + 9 x3 + 9 x4 + 9 x5 + 8 x6 + 9 x7 + 9 x8 >= 18
 C158: 8 x0 + 9 x1 + 9 x2 + 8 x3 + 9 x4 + 9 x5 + 8 x6 + 8 x7 + 9 x8 >= 18
 C159: 8 x0 + 9 x1 + 8 x2 + 9 x3 + 9 x4 + 8 x5 + 9 x6 + 9 x7 + 8 x8 >= 18
 C160: 8 x0 + 8 x1 + 8 x2 + 9 x3 + 9 x4 + 8 x5 + 9 x6 + 9 x7 + 9 x8 >= 18
 C161: 8 x0 + 9 x1 + 9 x2 + 9 x3 + 9 x4 + 9 x5 + 8 x6 + 8 x7 + 8 x8 >= 18
 C162: 9 x0 + 8 x1 + 9 x2 + 9 x3 + 8 x4 + 9 x5 + 8 x6 + 8 x7 + 9 x8 >= 18
 C163: 9 x0 + 8 x1 + 9 x2 + 9 x3 + 8 x4 + 8 x5 + 9 x6 + 8 x7 + 9 x8 >= 18
 C164: 9 x0 + 9 x1 + 8 x2 + 9 x3 + 8 x4 + 8 x5 + 9 x6 + 9 x7 + 8 x8 >= 18
 C165: 3 x0 + 3 x1 + 4 x2 + 4 x3 + 4 x4 + 4 x5 + 4 x6 + 4 x7 + 4 x8 >= 8
 C166: 3 x0 + 4 x1 + 3 x2 + 4 x3 + 4 x4 + 4 x5 + 4 x6 + 4 x7 + 4 x8 >= 8
 C167: 4 x0 + 4 x1 + 4 x2 + 3 x3 + 3 x4 + 4 x5 + 4 x6 + 4 x7 + 4 x8 >= 8
 C168: 4 x0 + 4 x1 + 4 x2 + 4 x3 + 4 x4 + 3 x5 + 4 x6 + 4 x7 + 3 x8 >= 8
 C169: 4 x0 + 4 x1 + 4 x2 + 4 x3 + 3 x4 + 3 x5 + 4 x6 + 4 x7 + 4 x8 >= 8
 C170: 4 x0 + 4 x1 + 3 x2 + 4 x3 + 4 x4 + 3 x5 + 4 x6 + 4 x7 + 4 x8 >= 8
 C171: 4 x0 + 4 x1 + 4 x2 + 3 x3 + 4 x4 + 3 x5 + 4 x6 + 4 x7 + 4 x8 >= 8
 C172: 4 x0 + 4 x1 + 4 x2 + 3 x3 + 4 x4 + 4 x5 + 3 x6 + 4 x7 + 4 x8 >= 8
 C173: 4 x0 + 4 x1 + 4 x2 + 4 x3 + 3 x4 + 4 x5 + 4 x6 + 3 x7 + 4 x8 >= 8
 C174: 4 x0 + 4 x1 + 3 x2 + 4 x3 + 4 x4 + 4 x5 + 4 x6 + 4 x7 + 3 x8 >= 8
 C175: 3 x0 + 4 x1 + 4 x2 + 4 x3 + 4 x4 + 4 x5 + 3 x6 + 4 x7 + 4 x8 >= 8
 C176: 4 x0 + 3 x1 + 4 x2 + 4 x3 + 3 x4 + 4 x5 + 4 x6 + 4 x7 + 4 x8 >= 8
 C177: 4 x0 + 3 x1 + 3 x2 + 4 x3 + 4 x4 + 4 x5 + 4 x6 + 4 x7 + 4 x8 >= 8
 C178: 3 x0 + 4 x1 + 4 x2 + 3 x3 + 4 x4 + 4 x5 + 4 x6 + 4 x7 + 4 x8 >= 8
 C179: 4 x0 + 3 x1 + 4 x2 + 4 x3 + 4 x4 + 4 x5 + 4 x6 + 3 x7 + 4 x8 >= 8
 C180: 4 x0 + 4 x1 + 4 x2 + 4 x3 + 4 x4 + 4 x5 + 3 x6 + 3 x7 + 4 x8 >= 8
 C181: 4 x0 + 4 x1 + 4 x2 + 4 x3 + 4 x4 + 4 x5 + 3 x6 + 4 x7 + 3 x8 >= 8
 C182: 4 x0 + 4 x1 + 4 x2 + 4 x3 + 4 x4 + 4 x5 + 4 x6 + 3 x7 + 3 x8 >= 8
 C183: 7 x0 + 7 x1 + 8 x2 + 8 x3 + 8 x4 + 8 x5 + 8 x6 + 8 x7 + 8 x8 >= 16
 C184: 7 x0 + 8 x1 + 7 x2 + 8 x3 + 8 x4 + 8 x5 + 8 x6 + 8 x7 + 8 x8 >= 16
 C185: 8 x0 + 8 x1 + 8 x2 + 7 x3 + 7 x4 + 8 x5 + 8 x6 + 8 x7 + 8 x8 >= 16
 C186: 8 x0 + 8 x1 + 8 x2 + 8 x3 + 8 x4 + 7 x5 + 8 x6 + 8 x7 + 7 x8 >= 16
 C187: 8 x0 + 8 x1 + 8 x2 + 8 x3 + 7 x4 + 7 x5 + 8 x6 + 8 x7 + 8 x8 >= 16
 C188: 8 x0 + 8 x1 + 7 x2 + 8 x3 + 8 x4 + 7 x5 + 8 x6 + 8 x7 + 8 x8 >= 16
 C189: 8 x0 + 8 x1 + 8 x2 + 7 x3 + 8 x4 + 7 x5 + 8 x6 + 8 x7 + 8 x8 >= 16
 C190: 8 x0 + 8 x1 + 8 x2 + 7 x3 + 8 x4 + 8 x5 + 7 x6 + 8 x7 + 8 x8 >= 16
 C191: 8 x0 + 8 x1 + 8 x2 + 8 x3 + 7 x4 + 8 x5 + 8 x6 + 7 x7 + 8 x8 >= 16
 C192: 8 x0 + 8 x1 + 7 x2 + 8 x3 + 8 x4 + 8 x5 + 8 x6 + 8 x7 + 7 x8 >= 16
 C193: 7 x0 + 8 x1 + 8 x2 + 8 x3 + 8 x4 + 8 x5 + 7 x6 + 8 x7 + 8 x8 >= 16
 C194: 8 x0 + 7 x1 + 8 x2 + 8 x3 + 7 x4 + 8 x5 + 8 x6 + 8 x7 + 8 x8 >= 16
 C195: 8 x0 + 7 x1 + 7 x2 + 8 x3 + 8 x4 + 8 x5 + 8 x6 + 8 x7 + 8 x8 >= 16
 C196: 7 x0 + 8 x1 + 8 x2 + 7 x3 + 8 x4 + 8 x5 + 8 x6 + 8 x7 + 8 x8 >= 16
 C197: 8 x0 + 7 x1 + 8 x2 + 8 x3 + 8 x4 + 8 x5 + 8 x6 + 7 x7 + 8 x8 >= 16
 C198: 8 x0 + 8 x1 + 8 x2 + 8 x3 + 8 x4 + 8 x5 + 7 x6 + 7 x7 + 8 x8 >= 16
 C199: 8 x0 + 8 x1 + 8 x2 + 8 x3 + 8 x4 + 8 x5 + 7 x6 + 8 x7 + 7 x8 >= 16
 C200: 8 x0 + 8 x1 + 8 x2 + 8 x3 + 8 x4 + 8 x5 + 8 x6 + 7 x7 + 7 x8 >= 16
 C201: 10 x0 + 9 x1 + 9 x2 + 10 x3 + 10 x4 + 9 x5 + 10 x6 + 10 x7 + 9 x8 >= 20
 C202: 10 x0 + 9 x1 + 9 x2 + 10 x3 + 9 x4 + 10 x5 + 10 x6 + 9 x7 + 10 x8 >= 20
 C203: 10 x0 + 10 x1 + 9 x2 + 9 x3 + 10 x4 + 9 x5 + 10 x6 + 10 x7 + 9 x8 >= 20
 C204: 9 x0 + 9 x1 + 9 x2 + 10 x3 + 10 x4 + 10 x5 + 10 x6 + 10 x7 + 9 x8 >= 20
 C205: 9 x0 + 10 x1 + 10 x2 + 9 x3 + 10 x4 + 9 x5 + 9 x6 + 10 x7 + 10 x8 >= 20
 C206: 10 x0 + 10 x1 + 9 x2 + 10 x3 + 10 x4 + 10 x5 + 9 x6 + 9 x7 + 9 x8 >= 20
 C207: 10 x0 + 9 x1 + 10 x2 + 9 x3 + 9 x4 + 10 x5 + 10 x6 + 9 x7 + 10 x8 >= 20
 C208: 9 x0 + 9 x1 + 9 x2 + 9 x3 + 10 x4 + 10 x5 + 10 x6 + 10 x7 + 10 x8 >= 20
 C209: 9 x0 + 9 x1 + 9 x2 + 10 x3 + 10 x4 + 10 x5 + 10 x6 + 9 x7 + 10 x8 >= 20
 C210: 10 x0 + 10 x1 + 10 x2 + 9 x3 + 9 x4 + 9 x5 + 10 x6 + 10 x7 + 9 x8 >= 20
 C211: 9 x0 + 10 x1 + 10 x2 + 9 x3 + 9 x4 + 10 x5 + 9 x6 + 10 x7 + 10 x8 >= 20
 C212: 9 x0 + 10 x1 + 10 x2 + 9 x3 + 9 x4 + 9 x5 + 10 x6 + 10 x7 + 10 x8 >= 20
 C213: 10 x0 + 9 x1 + 10 x2 + 10 x3 + 10 x4 + 10 x5 + 9 x6 + 9 x7 + 9 x8 >= 20
 C214: 10 x0 + 10 x1 + 10 x2 + 10 x3 + 10 x4 + 9 x5 + 9 x6 + 9 x7 + 9 x8 >= 20
 C215: 9 x0 + 9 x1 + 10 x2 + 9 x3 + 10 x4 + 10 x5 + 9 x6 + 10 x7 + 10 x8 >= 20
 C216: 10 x0 + 10 x1 + 10 x2 + 9 x3 + 10 x4 + 10 x5 + 9 x6 + 9 x7 + 9 x8 >= 20
 C217: 10 x0 + 9 x1 + 10 x2 + 9 x3 + 9 x4 + 9 x5 + 10 x6 + 10 x7 + 10 x8 >= 20
 C218: 10 x0 + 10 x1 + 10 x2 + 9 x3 + 9 x4 + 9 x5 + 9 x6 + 10 x7 + 10 x8 >= 20
 C219: 10 x0 + 10 x1 + 9 x2 + 10 x3 + 10 x4 + 9 x5 + 10 x6 + 9 x7 + 9 x8 >= 20
 C220: 10 x0 + 10 x1 + 10 x2 + 9 x3 + 9 x4 + 9 x5 + 10 x6 + 9 x7 + 10 x8 >= 20
 C221: 9 x0 + 9 x1 + 10 x2 + 10 x3 + 9 x4 + 10 x5 + 10 x6 + 9 x7 + 10 x8 >= 20
 C222: 9 x0 + 9 x1 + 9 x2 + 10 x3 + 9 x4 + 10 x5 + 10 x6 + 10 x7 + 10 x8 >= 20
 C223: 10 x0 + 9 x1 + 10 x2 + 10 x3 + 9 x4 + 10 x5 + 10 x6 + 9 x7 + 9 x8 >= 20
 C224: 10 x0 + 10 x1 + 10 x2 + 10 x3 + 9 x4 + 10 x5 + 9 x6 + 9 x7 + 9 x8 >= 20
 C225: 9 x0 + 10 x1 + 9 x2 + 9 x3 + 10 x4 + 10 x5 + 9 x6 + 10 x7 + 10 x8 >= 20
 C226: 10 x0 + 10 x1 + 9 x2 + 9 x3 + 9 x4 + 9 x5 + 10 x6 + 10 x7 + 10 x8 >= 20
 C227: 9 x0 + 10 x1 + 10 x2 + 9 x3 + 10 x4 + 10 x5 + 9 x6 + 10 x7 + 9 x8 >= 20
 C228: 10 x0 + 10 x1 + 9 x2 + 10 x3 + 10 x4 + 9 x5 + 9 x6 + 10 x7 + 9 x8 >= 20
 C229: 9 x0 + 9 x1 + 9 x2 + 10 x3 + 10 x4 + 10 x5 + 9 x6 + 10 x7 + 10 x8 >= 20
 C230: 9 x0 + 10 x1 + 10 x2 + 9 x3 + 10 x4 + 10 x5 + 9 x6 + 9 x7 + 10 x8 >= 20
 C231: 9 x0 + 10 x1 + 9 x2 + 10 x3 + 10 x4 + 9 x5 + 10 x6 + 10 x7 + 9 x8 >= 20
 C232: 9 x0 + 9 x1 + 9 x2 + 10 x3 + 10 x4 + 9 x5 + 10 x6 + 10 x7 + 10 x8 >= 20
 C233: 9 x0 + 10 x1 + 10 x2 + 10 x3 + 10 x4 + 10 x5 + 9 x6 + 9 x7 + 9 x8 >= 20
 C234: 10 x0 + 9 x1 + 10 x2 + 10 x3 + 9 x4 + 10 x5 + 9 x6 + 9 x7 + 10 x8 >= 20
 C235: 10 x0 + 9 x1 + 10 x2 + 10 x3 + 9 x4 + 9 x5 + 10 x6 + 9 x7 + 10 x8 >= 20
 C236: 10 x0 + 10 x1 + 9 x2 + 10 x3 + 9 x4 + 9 x5 + 10 x6 + 10 x7 + 9 x8 >= 20
 C237: 12 x0 + 11 x1 + 11 x2 + 12 x3 + 12 x4 + 11 x5 + 12 x6 + 12 x7 + 11 x8
       >= 24
 C238: 12 x0 + 11 x1 + 11 x2 + 12 x3 + 11 x4 + 12 x5 + 12 x6 + 11 x7 + 12 x8
       >= 24
 C239: 12 x0 + 12 x1 + 11 x2 + 11 x3 + 12 x4 + 11 x5 + 12 x6 + 12 x7 + 11 x8
       >= 24
 C240: 11 x0 + 11 x1 + 11 x2 + 12 x3 + 12 x4 + 12 x5 + 12 x6 + 12 x7 + 11 x8
       >= 24
 C241: 11 x0 + 12 x1 + 12 x2 + 11 x3 + 12 x4 + 11 x5 + 11 x6 + 12 x7 + 12 x8
       >= 24
 C242: 12 x0 + 12 x1 + 11 x2 + 12 x3 + 12 x4 + 12 x5 + 11 x6 + 11 x7 + 11 x8
       >= 24
 C243: 12 x0 + 11 x1 + 12 x2 + 11 x3 + 11 x4 + 12 x5 + 12 x6 + 11 x7 + 12 x8
       >= 24
 C244: 11 x0 + 11 x1 + 11 x2 + 11 x3 + 12 x4 + 12 x5 + 12 x6 + 12 x7 + 12 x8
       >= 24
 C245: 11 x0 + 11 x1 + 11 x2 + 12 x3 + 12 x4 + 12 x5 + 12 x6 + 11 x7 + 12 x8
       >= 24
 C246: 12 x0 + 12 x1 + 12 x2 + 11 x3 + 11 x4 + 11 x5 + 12 x6 + 12 x7 + 11 x8
       >= 24
 C247: 11 x0 + 12 x1 + 12 x2 + 11 x3 + 11 x4 + 12 x5 + 11 x6 + 12 x7 + 12 x8
       >= 24
 C248: 11 x0 + 12 x1 + 12 x2 + 11 x3 + 11 x4 + 11 x5 + 12 x6 + 12 x7 + 12 x8
       >= 24
 C249: 12 x0 + 11 x1 + 12 x2 + 12 x3 + 12 x4 + 12 x5 + 11 x6 + 11 x7 + 11 x8
       >= 24
 C250: 12 x0 + 12 x1 + 12 x2 + 12 x3 + 12 x4 + 11 x5 + 11 x6 + 11 x7 + 11 x8
       >= 24
 C251: 11 x0 + 11 x1 + 12 x2 + 11 x3 + 12 x4 + 12 x5 + 11 x6 + 12 x7 + 12 x8
       >= 24
 C252: 12 x0 + 12 x1 + 12 x2 + 11 x3 + 12 x4 + 12 x5 + 11 x6 + 11 x7 + 11 x8
       >= 24
 C253: 12 x0 + 11 x1 + 12 x2 + 11 x3 + 11 x4 + 11 x5 + 12 x6 + 12 x7 + 12 x8
       >= 24
 C254: 12 x0 + 12 x1 + 12 x2 + 11 x3 + 11 x4 + 11 x5 + 11 x6 + 12 x7 + 12 x8
       >= 24
 C255: 12 x0 + 12 x1 + 11 x2 + 12 x3 + 12 x4 + 11 x5 + 12 x6 + 11 x7 + 11 x8
       >= 24
 C256: 12 x0 + 12 x1 + 12 x2 + 11 x3 + 11 x4 + 11 x5 + 12 x6 + 11 x7 + 12 x8
       >= 24
 C257: 11 x0 + 11 x1 + 12 x2 + 12 x3 + 11 x4 + 12 x5 + 12 x6 + 11 x7 + 12 x8
       >= 24
 C258: 11 x0 + 11 x1 + 11 x2 + 12 x3 + 11 x4 + 12 x5 + 12 x6 + 12 x7 + 12 x8
       >= 24
 C259: 12 x0 + 11 x1 + 12 x2 + 12 x3 + 11 x4 + 12 x5 + 12 x6 + 11 x7 + 11 x8
       >= 24
 C260: 12 x0 + 12 x1 + 12 x2 + 12 x3 + 11 x4 + 12 x5 + 11 x6 + 11 x7 + 11 x8
       >= 24
 C261: 11 x0 + 12 x1 + 11 x2 + 11 x3 + 12 x4 + 12 x5 + 11 x6 + 12 x7 + 12 x8
       >= 24
 C262: 12 x0 + 12 x1 + 11 x2 + 11 x3 + 11 x4 + 11 x5 + 12 x6 + 12 x7 + 12 x8
       >= 24
 C263: 11 x0 + 12 x1 + 12 x2 + 11 x3 + 12 x4 + 12 x5 + 11 x6 + 12 x7 + 11 x8
       >= 24
 C264: 12 x0 + 12 x1 + 11 x2 + 12 x3 + 12 x4 + 11 x5 + 11 x6 + 12 x7 + 11 x8
       >= 24
 C265: 11 x0 + 11 x1 + 11 x2 + 12 x3 + 12 x4 + 12 x5 + 11 x6 + 12 x7 + 12 x8
       >= 24
 C266: 11 x0 + 12 x1 + 12 x2 + 11 x3 + 12 x4 + 12 x5 + 11 x6 + 11 x7 + 12 x8
       >= 24
 C267: 11 x0 + 12 x1 + 11 x2 + 12 x3 + 12 x4 + 11 x5 + 12 x6 + 12 x7 + 11 x8
       >= 24
 C268: 11 x0 + 11 x1 + 11 x2 + 12 x3 + 12 x4 + 11 x5 + 12 x6 + 12 x7 + 12 x8
       >= 24
 C269: 11 x0 + 12 x1 + 12 x2 + 12 x3 + 12 x4 + 12 x5 + 11 x6 + 11 x7 + 11 x8
       >= 24
 C270: 12 x0 + 11 x1 + 12 x2 + 12 x3 + 11 x4 + 12 x5 + 11 x6 + 11 x7 + 12 x8
       >= 24
 C271: 12 x0 + 11 x1 + 12 x2 + 12 x3 + 11 x4 + 11 x5 + 12 x6 + 11 x7 + 12 x8
       >= 24
 C272: 12 x0 + 12 x1 + 11 x2 + 12 x3 + 11 x4 + 11 x5 + 12 x6 + 12 x7 + 11 x8
       >= 24
 C273: 4 x0 + 4 x1 + 5 x2 + 4 x3 + 5 x4 + 5 x5 + 4 x6 + 5 x7 + 5 x8 >= 10
 C274: 4 x0 + 5 x1 + 4 x2 + 4 x3 + 5 x4 + 5 x5 + 4 x6 + 5 x7 + 5 x8 >= 10
 C275: 5 x0 + 4 x1 + 5 x2 + 4 x3 + 4 x4 + 5 x5 + 5 x6 + 4 x7 + 5 x8 >= 10
 C276: 5 x0 + 5 x1 + 5 x2 + 4 x3 + 4 x4 + 4 x5 + 5 x6 + 5 x7 + 4 x8 >= 10
 C277: 5 x0 + 4 x1 + 5 x2 + 5 x3 + 4 x4 + 4 x5 + 5 x6 + 4 x7 + 5 x8 >= 10
 C278: 5 x0 + 5 x1 + 4 x2 + 4 x3 + 4 x4 + 4 x5 + 5 x6 + 5 x7 + 5 x8 >= 10
 C279: 5 x0 + 5 x1 + 4 x2 + 4 x3 + 5 x4 + 4 x5 + 5 x6 + 5 x7 + 4 x8 >= 10
 C280: 5 x0 + 5 x1 + 5 x2 + 4 x3 + 5 x4 + 5 x5 + 4 x6 + 4 x7 + 4 x8 >= 10
 C281: 5 x0 + 5 x1 + 5 x2 + 4 x3 + 4 x4 + 4 x5 + 5 x6 + 4 x7 + 5 x8 >= 10
 C282: 4 x0 + 4 x1 + 4 x2 + 5 x3 + 5 x4 + 5 x5 + 5 x6 + 5 x7 + 4 x8 >= 10
 C283: 5 x0 + 5 x1 + 4 x2 + 5 x3 + 4 x4 + 4 x5 + 5 x6 + 5 x7 + 4 x8 >= 10
 C284: 4 x0 + 5 x1 + 5 x2 + 5 x3 + 5 x4 + 5 x5 + 4 x6 + 4 x7 + 4 x8 >= 10
 C285: 5 x0 + 4 x1 + 5 x2 + 4 x3 + 4 x4 + 4 x5 + 5 x6 + 5 x7 + 5 x8 >= 10
 C286: 4 x0 + 4 x1 + 4 x2 + 5 x3 + 5 x4 + 4 x5 + 5 x6 + 5 x7 + 5 x8 >= 10
 C287: 5 x0 + 4 x1 + 4 x2 + 5 x3 + 5 x4 + 4 x5 + 5 x6 + 5 x7 + 4 x8 >= 10
 C288: 4 x0 + 4 x1 + 4 x2 + 4 x3 + 5 x4 + 5 x5 + 5 x6 + 5 x7 + 5 x8 >= 10
 C289: 5 x0 + 4 x1 + 5 x2 + 5 x3 + 5 x4 + 5 x5 + 4 x6 + 4 x7 + 4 x8 >= 10
 C290: 4 x0 + 4 x1 + 4 x2 + 5 x3 + 5 x4 + 5 x5 + 4 x6 + 5 x7 + 5 x8 >= 10
 C291: 4 x0 + 5 x1 + 5 x2 + 4 x3 + 5 x4 + 5 x5 + 4 x6 + 4 x7 + 5 x8 >= 10
 C292: 4 x0 + 4 x1 + 4 x2 + 5 x3 + 5 x4 + 5 x5 + 5 x6 + 4 x7 + 5 x8 >= 10
 C293: 4 x0 + 5 x1 + 4 x2 + 5 x3 + 5 x4 + 4 x5 + 5 x6 + 5 x7 + 4 x8 >= 10
 C294: 5 x0 + 5 x1 + 5 x2 + 5 x3 + 4 x4 + 5 x5 + 4 x6 + 4 x7 + 4 x8 >= 10
 C295: 4 x0 + 5 x1 + 5 x2 + 4 x3 + 5 x4 + 5 x5 + 4 x6 + 5 x7 + 4 x8 >= 10
 C296: 4 x0 + 4 x1 + 4 x2 + 5 x3 + 4 x4 + 5 x5 + 5 x6 + 5 x7 + 5 x8 >= 10
 C297: 5 x0 + 4 x1 + 4 x2 + 5 x3 + 4 x4 + 5 x5 + 5 x6 + 4 x7 + 5 x8 >= 10
 C298: 5 x0 + 5 x1 + 4 x2 + 5 x3 + 5 x4 + 5 x5 + 4 x6 + 4 x7 + 4 x8 >= 10
 C299: 5 x0 + 4 x1 + 5 x2 + 5 x3 + 4 x4 + 5 x5 + 5 x6 + 4 x7 + 4 x8 >= 10
 C300: 5 x0 + 4 x1 + 5 x2 + 5 x3 + 4 x4 + 5 x5 + 4 x6 + 4 x7 + 5 x8 >= 10
 C301: 5 x0 + 5 x1 + 5 x2 + 4 x3 + 4 x4 + 4 x5 + 4 x6 + 5 x7 + 5 x8 >= 10
 C302: 5 x0 + 5 x1 + 4 x2 + 5 x3 + 5 x4 + 4 x5 + 5 x6 + 4 x7 + 4 x8 >= 10
 C303: 4 x0 + 4 x1 + 5 x2 + 5 x3 + 4 x4 + 5 x5 + 5 x6 + 4 x7 + 5 x8 >= 10
 C304: 5 x0 + 5 x1 + 5 x2 + 5 x3 + 5 x4 + 4 x5 + 4 x6 + 4 x7 + 4 x8 >= 10
 C305: 4 x0 + 5 x1 + 5 x2 + 4 x3 + 4 x4 + 4 x5 + 5 x6 + 5 x7 + 5 x8 >= 10
 C306: 5 x0 + 5 x1 + 4 x2 + 5 x3 + 5 x4 + 4 x5 + 4 x6 + 5 x7 + 4 x8 >= 10
 C307: 4 x0 + 5 x1 + 5 x2 + 4 x3 + 5 x4 + 4 x5 + 4 x6 + 5 x7 + 5 x8 >= 10
 C308: 4 x0 + 5 x1 + 5 x2 + 4 x3 + 4 x4 + 5 x5 + 4 x6 + 5 x7 + 5 x8 >= 10
 C309: 5 x0 + 5 x1 + 6 x2 + 6 x3 + 6 x4 + 6 x5 + 6 x6 + 6 x7 + 6 x8 >= 12
 C310: 5 x0 + 6 x1 + 5 x2 + 6 x3 + 6 x4 + 6 x5 + 6 x6 + 6 x7 + 6 x8 >= 12
 C311: 6 x0 + 6 x1 + 6 x2 + 5 x3 + 5 x4 + 6 x5 + 6 x6 + 6 x7 + 6 x8 >= 12
 C312: 6 x0 + 6 x1 + 6 x2 + 6 x3 + 6 x4 + 5 x5 + 6 x6 + 6 x7 + 5 x8 >= 12
 C313: 6 x0 + 6 x1 + 6 x2 + 6 x3 + 5 x4 + 5 x5 + 6 x6 + 6 x7 + 6 x8 >= 12
 C314: 6 x0 + 6 x1 + 5 x2 + 6 x3 + 6 x4 + 5 x5 + 6 x6 + 6 x7 + 6 x8 >= 12
 C315: 6 x0 + 6 x1 + 6 x2 + 5 x3 + 6 x4 + 5 x5 + 6 x6 + 6 x7 + 6 x8 >= 12
 C316: 6 x0 + 6 x1 + 6 x2 + 5 x3 + 6 x4 + 6 x5 + 5 x6 + 6 x7 + 6 x8 >= 12
 C317: 6 x0 + 6 x1 + 6 x2 + 6 x3 + 5 x4 + 6 x5 + 6 x6 + 5 x7 + 6 x8 >= 12
 C318: 6 x0 + 6 x1 + 5 x2 + 6 x3 + 6 x4 + 6 x5 + 6 x6 + 6 x7 + 5 x8 >= 12
 C319: 5 x0 + 6 x1 + 6 x2 + 6 x3 + 6 x4 + 6 x5 + 5 x6 + 6 x7 + 6 x8 >= 12
 C320: 6 x0 + 5 x1 + 6 x2 + 6 x3 + 5 x4 + 6 x5 + 6 x6 + 6 x7 + 6 x8 >= 12
 C321: 6 x0 + 5 x1 + 5 x2 + 6 x3 + 6 x4 + 6 x5 + 6 x6 + 6 x7 + 6 x8 >= 12
 C322: 5 x0 + 6 x1 + 6 x2 + 5 x3 + 6 x4 + 6 x5 + 6 x6 + 6 x7 + 6 x8 >= 12
 C323: 6 x0 + 5 x1 + 6 x2 + 6 x3 + 6 x4 + 6 x5 + 6 x6 + 5 x7 + 6 x8 >= 12
 C324: 6 x0 + 6 x1 + 6 x2 + 6 x3 + 6 x4 + 6 x5 + 5 x6 + 5 x7 + 6 x8 >= 12
 C325: 6 x0 + 6 x1 + 6 x2 + 6 x3 + 6 x4 + 6 x5 + 5 x6 + 6 x7 + 5 x8 >= 12
 C326: 6 x0 + 6 x1 + 6 x2 + 6 x3 + 6 x4 + 6 x5 + 6 x6 + 5 x7 + 5 x8 >= 12
 C327: 9 x0 + 8 x1 + 8 x2 + 9 x3 + 8 x4 + 8 x5 + 9 x6 + 8 x7 + 8 x8 >= 18
 C328: 8 x0 + 9 x1 + 8 x2 + 8 x3 + 9 x4 + 8 x5 + 8 x6 + 9 x7 + 8 x8 >= 18
 C329: 8 x0 + 8 x1 + 8 x2 + 9 x3 + 9 x4 + 9 x5 + 8 x6 + 8 x7 + 8 x8 >= 18
 C330: 8 x0 + 8 x1 + 9 x2 + 8 x3 + 8 x4 + 9 x5 + 8 x6 + 8 x7 + 9 x8 >= 18
 C331: 8 x0 + 8 x1 + 8 x2 + 8 x3 + 8 x4 + 8 x5 + 9 x6 + 9 x7 + 9 x8 >= 18
 C332: 9 x0 + 9 x1 + 9 x2 + 8 x3 + 8 x4 + 8 x5 + 8 x6 + 8 x7 + 8 x8 >= 18
 C333: 12 x0 + 11 x1 + 11 x2 + 12 x3 + 11 x4 + 11 x5 + 12 x6 + 11 x7 + 11 x8
       >= 24
 C334: 11 x0 + 12 x1 + 11 x2 + 11 x3 + 12 x4 + 11 x5 + 11 x6 + 12 x7 + 11 x8
       >= 24
 C335: 11 x0 + 11 x1 + 11 x2 + 12 x3 + 12 x4 + 12 x5 + 11 x6 + 11 x7 + 11 x8
       >= 24
 C336: 11 x0 + 11 x1 + 12 x2 + 11 x3 + 11 x4 + 12 x5 + 11 x6 + 11 x7 + 12 x8
       >= 24
 C337: 11 x0 + 11 x1 + 11 x2 + 11 x3 + 11 x4 + 11 x5 + 12 x6 + 12 x7 + 12 x8
       >= 24
 C338: 12 x0 + 12 x1 + 12 x2 + 11 x3 + 11 x4 + 11 x5 + 11 x6 + 11 x7 + 11 x8
       >= 24
 C339: x1 + x2 + x3 + x4 + x5 + x6 + x7 + 2 x8 >= 2
 C340: x1 + x2 + x3 + x4 + x5 + x6 + 2 x7 + x8 >= 2
 C341: x0 + x1 + x2 + x3 + x5 + x6 + x7 + 2 x8 >= 2
 C342: x0 + 2 x1 + x2 + x3 + x4 + x6 + x7 + x8 >= 2
 C343: x0 + x1 + x2 + x3 + x5 + 2 x6 + x7 + x8 >= 2
 C344: x0 + x1 + x2 + x3 + x4 + x6 + 2 x7 + x8 >= 2
 C345: x0 + 2 x1 + x2 + x3 + x4 + x5 + x7 + x8 >= 2
 C346: x0 + x1 + 2 x2 + x3 + x5 + x6 + x7 + x8 >= 2
 C347: x0 + x1 + 2 x3 + x4 + x5 + x6 + x7 + x8 >= 2
 C348: x0 + x1 + x2 + x3 + x4 + 2 x6 + x7 + x8 >= 2
 C349: x0 + x1 + x2 + x3 + 2 x4 + x5 + x7 + x8 >= 2
 C350: x0 + x1 + x3 + x4 + x5 + 2 x6 + x7 + x8 >= 2
 C351: x0 + x1 + 2 x2 + x3 + x4 + x5 + x7 + x8 >= 2
 C352: x0 + x1 + x2 + 2 x3 + x4 + x5 + x6 + x8 >= 2
 C353: x1 + x2 + x3 + x4 + 2 x5 + x6 + x7 + x8 >= 2
 C354: x0 + x2 + 2 x3 + x4 + x5 + x6 + x7 + x8 >= 2
 C355: x0 + x1 + x3 + x4 + x5 + x6 + 2 x7 + x8 >= 2
 C356: x1 + x2 + x3 + 2 x4 + x5 + x6 + x7 + x8 >= 2
 C357: x0 + x1 + x2 + x3 + x4 + 2 x5 + x7 + x8 >= 2
 C358: 2 x0 + x1 + x2 + x3 + x4 + x5 + x6 + x8 >= 2
 C359: x0 + x2 + x3 + x4 + x5 + 2 x6 + x7 + x8 >= 2
 C360: x0 + x1 + x3 + 2 x4 + x5 + x6 + x7 + x8 >= 2
 C361: x0 + x1 + x2 + x3 + x4 + 2 x5 + x6 + x8 >= 2
 C362: x0 + x1 + x2 + 2 x3 + x4 + x5 + x6 + x7 >= 2
 C363: 2 x0 + x1 + x2 + x3 + x4 + x6 + x7 + x8 >= 2
 C364: x0 + 2 x1 + x2 + x4 + x5 + x6 + x7 + x8 >= 2
 C365: x0 + x2 + x3 + x4 + x5 + x6 + x7 + 2 x8 >= 2
 C366: 2 x0 + x1 + x2 + x3 + x5 + x6 + x7 + x8 >= 2
 C367: x0 + x1 + 2 x2 + x3 + x4 + x5 + x6 + x8 >= 2
 C368: 2 x0 + x1 + x2 + x3 + x4 + x5 + x6 + x7 >= 2
 C369: x0 + x1 + x2 + x4 + x5 + x6 + 2 x7 + x8 >= 2
 C370: x0 + x1 + x2 + x3 + 2 x4 + x5 + x6 + x7 >= 2
 C371: x0 + x2 + x3 + x4 + 2 x5 + x6 + x7 + x8 >= 2
 C372: x0 + 2 x1 + x2 + x3 + x4 + x5 + x6 + x7 >= 2
 C373: x0 + x1 + 2 x2 + x4 + x5 + x6 + x7 + x8 >= 2
 C374: x0 + x1 + x2 + x4 + x5 + x6 + x7 + 2 x8 >= 2
 C375: x0 + x1 + x2 + x3 + x4 + x5 + x6 + x7 + x8 >= 3
Bounds
 0 <= x0 <= 1
 0 <= x1 <= 1
 0 <= x2 <= 1
 0 <= x3 <= 1
 0 <= x4 <= 1
 0 <= x5 <= 1
 0 <= x6 <= 1
 0 <= x7 <= 1
 0 <= x8 <= 1
End
